p cnf 1333 2081
-24 40 58 -64 0
-2 9 44 101 0
44 -54 -65 -101 0
43 45 63 99 0
4 29 -60 102 0
4 29 -60 -102 0
18 68 71 -98 0
-54 57 -67 103 0
-54 57 -67 -103 0
41 42 73 104 0
41 42 73 -104 0
40 46 61 105 0
61 76 -105 106 0
76 83 -88 -106 0
2 -23 -40 -100 0
-13 32 37 107 0
37 46 -107 108 0
46 -58 -99 -108 0
-9 20 22 109 0
22 -43 -109 110 0
-43 -45 -110 111 0
-45 54 -111 112 0
54 -60 -64 -112 0
-12 63 68 -83 0
21 48 -83 113 0
21 48 -83 -113 0
-6 37 93 114 0
-6 37 93 -114 0
-60 -70 -93 100 0
26 29 -36 115 0
-36 42 -115 116 0
42 94 -98 -116 0
45 59 60 -95 0
8 -11 -35 117 0
-35 -39 -117 118 0
-39 67 -118 119 0
67 68 -119 120 0
68 -75 -120 121 0
-75 -80 -86 -121 0
22 24 41 122 0
41 -54 -122 123 0
-54 61 -123 124 0
61 -62 -99 -124 0
7 -17 33 125 0
33 -44 -125 126 0
-44 -76 -126 127 0
-76 -82 -95 -127 0
-16 61 68 -69 0
-1 11 -30 128 0
-30 -50 -128 129 0
-50 55 -129 130 0
55 -62 -130 131 0
-62 -77 -131 132 0
-77 -81 -86 -132 0
-11 13 53 133 0
53 -79 -133 134 0
-79 -93 -97 -134 0
64 71 -82 135 0
64 71 -82 -135 0
5 6 41 136 0
41 -54 -136 137 0
-54 -81 -137 138 0
-81 -84 97 -138 0
12 16 -22 139 0
-22 -46 -139 140 0
-46 93 -98 -140 0
-7 -24 50 141 0
50 -60 -141 142 0
-60 80 -142 143 0
80 82 -143 144 0
82 95 96 -144 0
75 88 91 93 0
4 -23 -64 145 0
-64 -87 -93 -145 0
-12 -22 -33 146 0
-33 76 -146 147 0
76 77 -83 -147 0
35 73 99 148 0
35 73 99 -148 0
-1 -8 35 149 0
35 -56 -149 150 0
-56 64 -150 151 0
64 86 92 -151 0
-5 -28 -47 60 0
-2 92 152 153 0
-2 92 152 -153 0
-2 92 -152 153 0
-2 92 -152 -153 0
3 -4 -15 154 0
-15 -30 -154 155 0
-30 -33 -155 156 0
-33 -54 -156 157 0
-54 -66 -157 158 0
-66 90 91 -158 0
3 4 32 159 0
32 64 -159 160 0
64 -69 76 -160 0
12 -41 44 161 0
44 -53 -161 162 0
-53 -56 -162 163 0
-56 -92 -97 -163 0
-1 6 35 164 0
35 -50 54 -164 0
-10 19 -20 -23 0
-25 35 88 165 0
-25 35 88 -165 0
-4 -11 -50 166 0
-4 -11 -50 -166 0
22 34 58 167 0
58 -59 -167 168 0
-59 76 -168 169 0
76 77 -169 170 0
77 88 96 -170 0
4 22 -28 171 0
-28 -72 -171 172 0
-72 76 -172 173 0
76 -84 -173 174 0
-84 87 -88 -174 0
7 -29 -33 175 0
-33 -45 -88 -175 0
6 69 -82 99 0
34 -65 -74 176 0
34 -65 -74 -176 0
16 -78 -80 86 0
-3 42 43 177 0
43 -52 -177 178 0
-52 -75 -81 -178 0
12 36 53 179 0
53 63 -179 180 0
63 64 -180 181 0
64 -67 -181 182 0
-67 -77 92 -182 0
6 -45 48 183 0
48 -54 57 -183 0
3 12 -50 66 0
56 -63 72 -79 0
-6 -23 41 184 0
-6 -23 41 -184 0
32 -36 -58 185 0
-58 61 -185 186 0
61 67 -186 187 0
67 -74 -187 188 0
-74 -77 98 -188 0
-10 13 -25 189 0
-25 38 -189 190 0
38 -43 -190 191 0
-43 -59 -191 192 0
-59 62 -192 193 0
62 -65 -95 -193 0
9 -31 -40 194 0
-40 51 -194 195 0
51 -52 -70 -195 0
-17 19 58 97 0
7 62 89 196 0
7 62 89 -196 0
-26 -52 197 198 0
-26 -52 197 -198 0
-26 -52 -197 198 0
-26 -52 -197 -198 0
-45 60 -97 199 0
-45 60 -97 -199 0
19 -25 -67 200 0
19 -25 -67 -200 0
12 -16 -35 201 0
-35 -44 -201 202 0
-44 64 -202 203 0
64 -78 -90 -203 0
-12 20 -58 204 0
-58 -72 -204 205 0
-72 78 85 -205 0
-6 19 44 206 0
-6 19 44 -206 0
-4 11 207 208 0
-4 11 207 -208 0
-4 11 -207 208 0
-4 11 -207 -208 0
19 29 -57 209 0
-57 73 -209 210 0
73 88 -94 -210 0
36 -37 -59 83 0
-49 -60 -65 211 0
-49 -60 -65 -211 0
-43 -98 212 213 0
-43 -98 212 -213 0
-43 -98 -212 213 0
-43 -98 -212 -213 0
39 -52 -67 214 0
39 -52 -67 -214 0
13 15 -23 215 0
-23 -41 -215 216 0
-41 44 -216 217 0
44 -54 -217 218 0
-54 69 87 -218 0
14 -51 -63 219 0
-63 -69 -219 220 0
-69 92 97 -220 0
54 94 99 221 0
54 94 99 -221 0
12 -32 46 222 0
46 -48 -68 -222 0
54 -55 67 223 0
54 -55 67 -223 0
20 36 38 224 0
38 -60 -224 225 0
-60 63 -225 226 0
63 65 -86 -226 0
43 -48 76 227 0
76 87 -227 228 0
87 -89 -93 -228 0
-21 -60 64 229 0
64 -81 94 -229 0
-6 -18 38 230 0
38 -48 -86 -230 0
1 -37 -46 52 0
-5 9 -22 231 0
-22 46 48 -231 0
-6 56 69 232 0
69 -89 -98 -232 0
-31 -60 -71 233 0
-71 -88 91 -233 0
2 -7 10 234 0
10 -49 -81 -234 0
-18 -29 40 -82 0
-28 33 -46 235 0
-46 64 -235 236 0
64 -74 -236 237 0
-74 78 -237 238 0
78 81 -238 239 0
81 -83 -92 -239 0
11 67 72 79 0
4 11 12 73 0
-6 9 -22 240 0
-22 -39 -240 241 0
-39 -76 86 -241 0
-1 55 63 242 0
63 66 73 -242 0
18 37 -43 243 0
-43 -60 -62 -243 0
46 -63 -68 244 0
-68 71 -244 245 0
71 85 -96 -245 0
11 -36 54 246 0
54 57 -246 247 0
57 63 -79 -247 0
7 -41 -70 -96 0
12 -26 61 248 0
61 -63 96 -248 0
9 49 70 71 0
10 51 66 249 0
66 78 100 -249 0
65 -68 250 251 0
65 -68 250 -251 0
65 -68 -250 251 0
65 -68 -250 -251 0
2 33 -50 252 0
-50 -94 -98 -252 0
6 -29 -33 -45 0
-24 26 -27 253 0
-27 37 -253 254 0
37 -41 -254 255 0
-41 -44 -255 256 0
-44 48 -84 -256 0
-8 47 71 257 0
71 74 -257 258 0
74 77 -80 -258 0
5 -10 86 -97 0
-14 19 23 259 0
23 -35 -259 260 0
-35 37 -260 261 0
37 41 87 -261 0
-20 42 46 262 0
46 58 -75 -262 0
-7 -59 -78 95 0
-39 88 98 263 0
-39 88 98 -263 0
23 84 88 -91 0
-3 14 20 264 0
20 23 -264 265 0
23 25 -265 266 0
25 -39 -55 -266 0
-17 -22 -35 88 0
4 -7 -20 267 0
-20 -62 -267 268 0
-62 -67 -268 269 0
-67 -74 -93 -269 0
-14 -37 99 270 0
-14 -37 99 -270 0
26 88 -90 -93 0
45 69 -79 271 0
45 69 -79 -271 0
19 20 -35 272 0
-35 73 81 -272 0
17 33 273 274 0
17 33 273 -274 0
17 33 -273 274 0
17 33 -273 -274 0
7 87 -96 275 0
7 87 -96 -275 0
-31 78 -90 276 0
-90 94 -276 277 0
94 96 -99 -277 0
-53 88 94 278 0
-53 88 94 -278 0
-20 -24 -28 279 0
-28 55 -79 -279 0
-57 -67 78 79 0
9 -14 -31 280 0
-31 38 -280 281 0
38 43 -281 282 0
43 -48 -282 283 0
-48 58 -283 284 0
58 -79 92 -284 0
-2 6 12 285 0
12 23 -285 286 0
23 32 75 -286 0
1 13 -16 287 0
-16 22 -287 288 0
22 -28 -288 289 0
-28 48 -289 290 0
48 95 -97 -290 0
49 66 -84 -97 0
-34 -54 -57 -73 0
-21 -51 -60 -80 0
39 50 -51 291 0
-51 -61 -291 292 0
-61 -64 -292 293 0
-64 67 -293 294 0
67 -75 -77 -294 0
-34 49 71 295 0
71 -94 -98 -295 0
4 32 -42 296 0
-42 -50 -296 297 0
-50 -55 -297 298 0
-55 -87 100 -298 0
-25 -78 -80 299 0
-25 -78 -80 -299 0
-17 30 300 301 0
-17 30 300 -301 0
-17 30 -300 301 0
-17 30 -300 -301 0
-33 37 -89 -92 0
6 29 34 93 0
-41 -81 302 303 0
-41 -81 302 -303 0
-41 -81 -302 303 0
-41 -81 -302 -303 0
-1 -16 21 87 0
11 53 87 304 0
11 53 87 -304 0
5 -11 33 305 0
33 34 -305 306 0
34 -46 -306 307 0
-46 -76 -88 -307 0
1 -16 30 308 0
30 33 -308 309 0
33 35 67 -309 0
19 39 42 310 0
42 43 -310 311 0
43 -75 -311 312 0
-75 77 -97 -312 0
-7 29 -99 313 0
-7 29 -99 -313 0
16 27 -73 93 0
-32 35 -84 314 0
-32 35 -84 -314 0
48 -100 315 316 0
48 -100 315 -316 0
48 -100 -315 316 0
48 -100 -315 -316 0
5 24 26 317 0
26 28 -317 318 0
28 63 -318 319 0
63 -72 -319 320 0
-72 75 -320 321 0
75 95 96 -321 0
22 27 -69 322 0
22 27 -69 -322 0
-13 -23 323 324 0
-13 -23 323 -324 0
-13 -23 -323 324 0
-13 -23 -323 -324 0
51 -60 -72 -100 0
-24 83 94 325 0
-24 83 94 -325 0
-33 42 52 326 0
52 -82 88 -326 0
-9 11 16 327 0
16 -22 -327 328 0
-22 78 -328 329 0
78 97 98 -329 0
19 -21 -54 330 0
-54 -74 -330 331 0
-74 85 -90 -331 0
1 3 -18 332 0
-18 20 56 -332 0
-26 -48 -58 333 0
-26 -48 -58 -333 0
-21 -44 -59 334 0
-21 -44 -59 -334 0
-3 -16 38 77 0
4 -35 -37 335 0
-37 -60 -335 336 0
-60 62 -63 -336 0
-1 -5 41 337 0
41 79 -337 338 0
79 -80 -94 -338 0
-22 53 80 89 0
18 74 -77 339 0
18 74 -77 -339 0
64 75 86 89 0
43 -57 61 340 0
61 -72 -77 -340 0
3 5 26 341 0
26 -33 -341 342 0
-33 -42 -342 343 0
-42 -59 -64 -343 0
11 26 82 344 0
82 83 -99 -344 0
-17 28 29 345 0
29 -44 -345 346 0
-44 -47 74 -346 0
6 9 31 347 0
31 -46 -347 348 0
-46 -55 -92 -348 0
6 -27 39 -40 0
-10 -31 33 349 0
33 34 -349 350 0
34 -36 -350 351 0
-36 38 -351 352 0
38 39 -352 353 0
39 -41 -46 -353 0
5 -26 92 -98 0
12 -35 -44 354 0
-44 56 -354 355 0
56 67 -85 -355 0
-19 -69 77 356 0
77 78 97 -356 0
-12 30 -48 83 0
5 22 -62 357 0
-62 67 84 -357 0
1 -16 -32 358 0
-32 -40 68 -358 0
16 -20 -59 359 0
-59 65 87 -359 0
6 20 -31 360 0
-31 42 -360 361 0
42 -81 -88 -361 0
8 -54 -59 362 0
8 -54 -59 -362 0
5 7 12 363 0
12 23 -363 364 0
23 -37 -364 365 0
-37 -40 -365 366 0
-40 50 76 -366 0
-8 16 25 367 0
25 89 96 -367 0
-12 -43 -52 368 0
-52 63 -368 369 0
63 64 -369 370 0
64 71 -81 -370 0
-3 -35 54 371 0
54 -59 -371 372 0
-59 70 -372 373 0
70 -87 92 -373 0
12 -29 70 74 0
10 -43 -56 374 0
-56 75 -87 -374 0
6 -8 -58 77 0
55 65 79 375 0
79 -85 88 -375 0
-6 -44 64 93 0
26 27 -32 376 0
-32 -46 -376 377 0
-46 54 -56 -377 0
10 38 378 379 0
10 38 378 -379 0
10 38 -378 379 0
10 38 -378 -379 0
-14 18 -50 61 0
-10 33 -48 380 0
-48 -53 -380 381 0
-53 -57 -381 382 0
-57 70 -382 383 0
70 75 -383 384 0
75 -88 92 -384 0
-11 35 -42 385 0
-11 35 -42 -385 0
8 -11 18 386 0
18 53 -386 387 0
53 -63 -74 -387 0
52 54 72 388 0
52 54 72 -388 0
-7 13 38 -69 0
27 77 80 389 0
27 77 80 -389 0
-63 66 -76 390 0
-63 66 -76 -390 0
50 51 82 391 0
50 51 82 -391 0
-9 49 55 392 0
55 70 -392 393 0
70 85 -393 394 0
85 92 -97 -394 0
-8 11 -32 -49 0
-22 41 46 395 0
46 55 -67 -395 0
-18 29 31 396 0
31 -52 -396 397 0
-52 -54 -397 398 0
-54 63 -398 399 0
63 -69 -73 -399 0
-21 72 77 -92 0
2 30 57 -92 0
-2 9 -15 46 0
3 -7 -69 -79 0
-4 35 38 400 0
38 -45 51 -400 0
54 68 69 401 0
54 68 69 -401 0
-8 17 -20 402 0
-20 -44 -402 403 0
-44 -48 -403 404 0
-48 76 -404 405 0
76 77 -405 406 0
77 -84 -406 407 0
-84 -89 -95 -407 0
-4 31 33 408 0
33 50 -408 409 0
50 -63 -409 410 0
-63 70 -71 -410 0
16 -26 42 411 0
42 -53 -411 412 0
-53 -85 -91 -412 0
-25 70 77 -78 0
-2 -6 -10 413 0
-10 20 -413 414 0
20 -39 -414 415 0
-39 -59 -415 416 0
-59 64 -416 417 0
64 -71 -417 418 0
-71 -86 -418 419 0
-86 -90 -95 -419 0
-20 22 62 -88 0
6 73 80 -91 0
2 -7 14 420 0
14 15 -420 421 0
15 50 -421 422 0
50 -63 -422 423 0
-63 -90 -93 -423 0
4 5 21 424 0
21 25 -424 425 0
25 -31 -55 -425 0
2 -16 -33 426 0
-33 59 -426 427 0
59 -69 -427 428 0
-69 89 91 -428 0
-2 84 97 100 0
13 -32 -73 -96 0
8 -21 -31 429 0
-31 -42 -429 430 0
-42 85 -430 431 0
85 86 -92 -431 0
1 44 82 432 0
1 44 82 -432 0
-10 -17 44 433 0
44 -65 -433 434 0
-65 73 95 -434 0
1 -14 -37 435 0
-37 -56 69 -435 0
12 -13 -24 436 0
-24 -39 -436 437 0
-39 -42 -437 438 0
-42 -63 -438 439 0
-63 -75 -439 440 0
-75 99 100 -440 0
-1 -6 12 441 0
12 13 -441 442 0
13 41 -442 443 0
41 73 -443 444 0
73 -78 85 -444 0
21 -50 53 445 0
53 -62 -65 -445 0
-10 15 44 446 0
44 -59 63 -446 0
-19 28 -29 -32 0
-34 44 97 447 0
-34 44 97 -447 0
5 -13 -20 -59 0
31 43 67 448 0
67 -68 -448 449 0
-68 85 -449 450 0
85 86 97 -450 0
13 31 -37 451 0
-37 -81 -451 452 0
-81 85 -452 453 0
85 -93 -453 454 0
-93 96 -97 -454 0
16 -38 -42 455 0
-42 -54 -97 -455 0
8 32 456 457 0
8 32 456 -457 0
8 32 -456 457 0
8 32 -456 -457 0
15 78 -91 458 0
15 78 -91 -458 0
43 -74 -83 459 0
43 -74 -83 -459 0
25 -87 -89 95 0
1 -12 51 460 0
51 52 -460 461 0
52 -61 -461 462 0
-61 -84 -90 -462 0
21 45 62 463 0
62 72 -463 464 0
72 73 -464 465 0
73 -76 -86 -465 0
15 -54 57 466 0
57 -63 66 -466 0
12 21 -59 75 0
65 -72 81 -88 0
7 -15 -32 50 0
-4 41 -45 467 0
-45 -67 -467 468 0
-67 70 -468 469 0
70 76 -469 470 0
76 -83 -86 -470 0
-19 22 -34 471 0
-34 47 -471 472 0
47 -52 -472 473 0
-52 -68 -473 474 0
-68 71 -74 -474 0
6 18 -40 475 0
-40 -49 -475 476 0
-49 60 -476 477 0
60 -61 -79 -477 0
-26 28 67 478 0
-26 28 67 -478 0
16 71 98 479 0
16 71 98 -479 0
-6 -35 -61 480 0
-6 -35 -61 -480 0
-54 69 481 482 0
-54 69 481 -482 0
-54 69 -481 482 0
-54 69 -481 -482 0
28 -34 -76 483 0
28 -34 -76 -483 0
21 -25 -44 484 0
-44 -53 -484 485 0
-53 73 -485 486 0
73 -87 -99 -486 0
-21 29 -67 487 0
-67 -81 -487 488 0
-81 87 94 -488 0
-15 28 53 489 0
-15 28 53 -489 0
-3 -13 20 490 0
-3 -13 20 -490 0
28 38 -66 491 0
-66 82 97 -491 0
45 -46 -68 92 0
-7 -58 -69 -74 0
48 -61 -76 492 0
48 -61 -76 -492 0
1 6 22 493 0
22 24 -493 494 0
24 -32 -494 495 0
-32 -50 -495 496 0
-50 53 -496 497 0
53 -63 -497 498 0
-63 78 96 -498 0
3 8 23 499 0
23 -60 -499 500 0
-60 -72 -78 -500 0
21 -41 55 501 0
55 -57 -77 -501 0
63 -64 76 502 0
63 -64 76 -502 0
-2 29 45 503 0
45 47 -503 504 0
47 -69 -504 505 0
-69 72 -505 506 0
72 74 -95 -506 0
3 52 -57 507 0
-57 85 -507 508 0
85 96 -98 -508 0
-30 -69 73 -90 0
-15 -27 47 509 0
47 -57 -95 -509 0
10 -46 -55 61 0
-7 -14 18 510 0
18 -31 -510 511 0
-31 55 57 -511 0
-15 65 78 -98 0
-40 -69 -80 512 0
-80 -97 100 -512 0
11 -16 19 513 0
19 -58 -90 -513 0
-1 -27 -38 514 0
-38 49 -91 -514 0
-37 42 -55 515 0
-55 73 -515 516 0
73 -83 -516 517 0
-83 87 -517 518 0
87 90 -92 -518 0
20 76 81 88 0
13 20 21 82 0
-15 18 -31 519 0
-31 -48 -519 520 0
-48 -85 95 -520 0
-10 64 72 521 0
72 75 82 -521 0
-5 27 46 522 0
46 -52 -522 523 0
-52 -69 -71 -523 0
55 -72 -77 524 0
-77 80 94 -524 0
-5 20 -45 525 0
-45 63 -525 526 0
63 66 -526 527 0
66 72 -88 -527 0
5 16 -50 -79 0
21 -35 70 -72 0
9 18 58 528 0
58 79 80 -528 0
19 60 75 87 0
-8 74 -77 529 0
-8 74 -77 -529 0
-3 -7 530 531 0
-3 -7 530 -531 0
-3 -7 -530 531 0
-3 -7 -530 -531 0
11 42 -59 532 0
11 42 -59 -532 0
15 -38 -42 -54 0
-33 35 -36 533 0
-36 46 -533 534 0
46 -50 -534 535 0
-50 -53 -535 536 0
-53 57 -93 -536 0
-6 -17 56 537 0
56 80 -537 538 0
80 83 -538 539 0
83 86 -89 -539 0
14 -19 95 540 0
14 -19 95 -540 0
-23 28 32 541 0
32 -44 -541 542 0
-44 46 -542 543 0
46 50 96 -543 0
4 -29 51 544 0
51 55 -544 545 0
55 67 -84 -545 0
7 -16 -68 -87 0
-48 97 546 547 0
-48 97 546 -547 0
-48 97 -546 547 0
-48 97 -546 -547 0
32 93 97 -100 0
-12 23 29 548 0
29 32 -548 549 0
32 34 -549 550 0
34 -48 -64 -550 0
-2 -26 -31 551 0
-31 -44 97 -551 0
8 13 -16 552 0
-16 -29 -552 553 0
-29 -71 -553 554 0
-71 -76 -83 -554 0
-2 -23 -46 555 0
-2 -23 -46 -555 0
35 97 -99 556 0
35 97 -99 -556 0
54 78 -88 557 0
54 78 -88 -557 0
28 29 -44 558 0
-44 82 90 -558 0
-5 26 42 559 0
-5 26 42 -559 0
3 5 -8 560 0
-8 16 96 -560 0
3 -40 87 -99 0
-62 97 561 562 0
-62 97 561 -562 0
-62 97 -561 562 0
-62 97 -561 -562 0
-29 -33 -37 563 0
-37 64 -88 -563 0
1 -66 -76 564 0
-76 87 88 -564 0
18 -23 -40 565 0
-40 47 -565 566 0
47 52 -566 567 0
52 -57 -567 568 0
-57 67 -88 -568 0
4 -6 -11 569 0
-11 15 -569 570 0
15 21 -570 571 0
21 32 -571 572 0
32 41 84 -572 0
-6 10 22 573 0
22 -25 -573 574 0
-25 31 -574 575 0
31 -37 57 -575 0
58 75 -93 576 0
58 75 -93 -576 0
-43 -63 -66 -82 0
-30 -60 -69 -89 0
-3 -7 48 577 0
48 59 -577 578 0
59 -60 -578 579 0
-60 -70 -579 580 0
-70 -73 -580 581 0
-73 76 -581 582 0
76 -84 -86 -582 0
9 -43 58 80 0
13 41 -51 583 0
-51 -59 -583 584 0
-59 -64 -96 -584 0
-34 -87 -89 585 0
-34 -87 -89 -585 0
-1 -26 39 586 0
-1 -26 39 -586 0
2 -42 46 -98 0
15 38 43 587 0
15 38 43 -587 0
-50 -90 588 589 0
-50 -90 588 -589 0
-50 -90 -588 589 0
-50 -90 -588 -589 0
-10 -25 30 96 0
20 62 96 590 0
20 62 96 -590 0
14 -20 42 591 0
42 43 -591 592 0
43 -55 -592 593 0
-55 -85 -97 -593 0
-6 10 -25 594 0
-25 39 -594 595 0
39 42 -595 596 0
42 44 76 -596 0
-8 28 48 597 0
48 51 -597 598 0
51 52 -598 599 0
52 -84 86 -599 0
2 -16 38 600 0
2 -16 38 -600 0
25 36 -82 601 0
25 36 -82 -601 0
-9 -41 44 -93 0
4 5 57 602 0
4 5 57 -602 0
14 33 35 603 0
35 37 -603 604 0
37 72 -604 605 0
72 -81 84 -605 0
31 36 -78 606 0
31 36 -78 -606 0
-9 -22 -32 607 0
-9 -22 -32 -607 0
3 60 -69 -81 0
-33 92 608 609 0
-33 92 608 -609 0
-33 92 -608 609 0
-33 92 -608 -609 0
6 7 -42 610 0
-42 51 -610 611 0
51 61 -611 612 0
61 -91 97 -612 0
-18 20 25 613 0
25 -31 87 -613 0
28 -30 -63 614 0
-63 -83 -614 615 0
-83 94 -99 -615 0
10 12 -27 616 0
-27 29 65 -616 0
-35 -57 -67 617 0
-35 -57 -67 -617 0
-30 -53 -68 618 0
-30 -53 -68 -618 0
-12 -25 47 86 0
-3 13 -44 619 0
-44 -46 -619 620 0
-46 -69 -620 621 0
-69 71 -72 -621 0
-10 -14 50 622 0
50 88 -89 -622 0
-31 62 89 98 0
27 83 -86 623 0
27 83 -86 -623 0
73 84 95 98 0
52 -66 70 624 0
70 -81 -86 -624 0
-8 12 14 625 0
14 35 -625 626 0
35 -42 -626 627 0
-42 -51 -627 628 0
-51 -68 -73 -628 0
20 35 91 92 0
-1 -26 37 629 0
37 38 -629 630 0
38 -53 -630 631 0
-53 -56 83 -631 0
15 18 40 632 0
40 -55 -64 -632 0
15 -36 48 -49 0
1 -7 -19 633 0
-19 -40 -633 634 0
-40 42 -634 635 0
42 43 -635 636 0
43 -45 -636 637 0
-45 47 -637 638 0
47 48 -638 639 0
48 -50 -55 -639 0
14 -35 640 641 0
14 -35 640 -641 0
14 -35 -640 641 0
14 -35 -640 -641 0
6 21 -44 642 0
-44 -53 -642 643 0
-53 65 -643 644 0
65 76 -94 -644 0
-28 -78 86 87 0
-21 39 -57 92 0
14 31 -71 645 0
-71 76 93 -645 0
10 -25 -41 646 0
-41 -49 77 -646 0
25 -29 -68 647 0
-68 74 96 -647 0
15 29 -40 648 0
-40 51 -648 649 0
51 -90 -97 -649 0
17 -63 -68 650 0
17 -63 -68 -650 0
5 14 16 651 0
16 21 -651 652 0
21 32 -652 653 0
32 -46 -653 654 0
-46 -49 -654 655 0
-49 59 85 -655 0
-17 25 34 98 0
1 -21 -52 656 0
-52 -61 -656 657 0
-61 72 -657 658 0
72 73 -658 659 0
73 80 -90 -659 0
-12 -44 63 660 0
63 -68 -660 661 0
-68 79 -96 -661 0
21 -38 79 83 0
19 -52 -65 662 0
-65 84 -96 -662 0
15 -17 -67 86 0
2 64 74 663 0
74 88 -663 664 0
88 -94 97 -664 0
-15 -53 73 665 0
-15 -53 73 -665 0
35 36 -41 666 0
-41 -55 -666 667 0
-55 63 -65 -667 0
19 47 668 669 0
19 47 668 -669 0
19 47 -668 669 0
19 47 -668 -669 0
1 -23 27 670 0
27 -59 70 -670 0
-19 42 -57 671 0
-57 -62 -671 672 0
-62 -66 -672 673 0
-66 79 -673 674 0
79 84 -97 -674 0
-20 44 -51 675 0
-20 44 -51 -675 0
17 -20 27 676 0
27 62 -676 677 0
62 -72 -83 -677 0
61 63 81 678 0
61 63 81 -678 0
-16 22 47 -78 0
36 86 89 679 0
36 86 89 -679 0
-72 75 -85 680 0
-72 75 -85 -680 0
1 -6 59 681 0
59 60 91 -681 0
-18 58 64 682 0
64 79 94 -682 0
-17 20 -41 -58 0
-31 50 55 683 0
55 64 -76 -683 0
-1 -27 38 684 0
38 40 -684 685 0
40 -61 -685 686 0
-61 -63 -686 687 0
-63 72 -687 688 0
72 -78 -82 -688 0
-1 -30 81 86 0
11 39 66 689 0
11 39 66 -689 0
-11 18 -24 55 0
12 -16 -78 -88 0
-13 44 47 690 0
47 -54 60 -690 0
-4 63 77 78 0
-17 26 -29 691 0
-29 -53 -691 692 0
-53 -57 -692 693 0
-57 85 -693 694 0
85 86 -694 695 0
86 -93 -98 -695 0
-13 40 42 696 0
42 59 -696 697 0
59 -72 -697 698 0
-72 79 -80 -698 0
25 -35 51 699 0
51 -62 -699 700 0
-62 -94 -100 -700 0
-4 -34 79 701 0
79 86 -87 -701 0
-11 -15 -19 702 0
-19 29 -702 703 0
29 -48 -703 704 0
-48 -68 -704 705 0
-68 73 -705 706 0
73 -80 -706 707 0
-80 -95 -99 -707 0
-29 31 71 -97 0
-2 15 82 708 0
82 89 -100 -708 0
11 -16 23 709 0
23 24 -709 710 0
24 59 -710 711 0
59 -72 -99 -711 0
13 14 30 712 0
30 34 -712 713 0
34 -40 -64 -713 0
6 9 11 714 0
11 -25 -714 715 0
-25 -42 -715 716 0
-42 68 -716 717 0
68 -78 -717 718 0
-78 98 100 -718 0
-5 -11 93 719 0
-5 -11 93 -719 0
-1 22 -41 -82 0
17 -30 -40 720 0
-40 -51 -720 721 0
-51 94 95 -721 0
4 10 53 91 0
-19 -26 53 722 0
53 -74 82 -722 0
10 -23 -46 723 0
-46 -65 78 -723 0
8 9 -20 724 0
8 9 -20 -724 0
21 -22 -33 725 0
-33 -48 -725 726 0
-48 -51 -726 727 0
-51 -72 -84 -727 0
-10 -15 21 728 0
21 22 -728 729 0
22 50 -729 730 0
50 82 -730 731 0
82 -87 94 -731 0
30 -59 62 732 0
62 -71 -74 -732 0
-19 24 53 733 0
53 -68 72 -733 0
6 -28 37 734 0
37 -38 -41 -734 0
-43 53 735 736 0
-43 53 735 -736 0
-43 53 -735 736 0
-43 53 -735 -736 0
6 14 -22 737 0
-22 -29 -68 -737 0
-2 5 -6 738 0
-6 40 -738 739 0
40 52 -739 740 0
52 76 -740 741 0
76 -77 -741 742 0
-77 94 95 -742 0
-6 22 40 743 0
40 -46 -743 744 0
-46 -90 94 -744 0
25 -47 -51 -63 0
17 41 745 746 0
17 41 745 -746 0
17 41 -745 746 0
17 41 -745 -746 0
24 87 -100 747 0
24 87 -100 -747 0
4 52 -83 -92 0
34 -96 -98 748 0
34 -96 -98 -748 0
10 -21 60 749 0
60 61 -749 750 0
61 -70 -750 751 0
-70 -93 -99 -751 0
30 54 71 752 0
71 81 -752 753 0
81 82 -753 754 0
82 -85 -95 -754 0
24 -63 66 755 0
66 -72 75 -755 0
21 30 -68 84 0
74 -81 90 -97 0
16 -24 -41 59 0
-13 50 -54 756 0
-54 -76 -756 757 0
-76 79 -757 758 0
79 85 -758 759 0
85 -92 -95 -759 0
-28 31 -43 760 0
-43 56 -760 761 0
56 -61 -761 762 0
-61 -77 -762 763 0
-77 80 -83 -763 0
15 27 -49 764 0
-49 -58 -764 765 0
-58 69 -765 766 0
69 -70 -88 -766 0
7 -35 37 76 0
25 80 767 768 0
25 80 767 -768 0
25 80 -767 768 0
25 80 -767 -768 0
-15 -44 -70 769 0
-15 -44 -70 -769 0
-63 78 770 771 0
-63 78 770 -771 0
-63 78 -770 771 0
-63 78 -770 -771 0
-8 37 -43 -85 0
3 30 -34 772 0
-34 -53 -772 773 0
-53 -62 -773 774 0
-62 82 -96 -774 0
-30 38 -76 775 0
-76 -90 96 -775 0
-24 37 62 776 0
-24 37 62 -776 0
6 -12 -22 29 0
1 37 47 777 0
47 -75 91 -777 0
54 -55 -77 778 0
54 -55 -77 -778 0
-16 -67 -78 -83 0
5 57 -70 -85 0
10 15 31 779 0
31 33 -779 780 0
33 -41 -780 781 0
-41 -59 -781 782 0
-59 62 -782 783 0
62 -72 87 -783 0
12 17 32 784 0
32 -69 -784 785 0
-69 -81 -87 -785 0
30 -50 64 786 0
64 -66 -86 -786 0
72 -73 85 787 0
72 -73 85 -787 0
5 -7 -11 788 0
-11 38 -788 789 0
38 54 -789 790 0
54 56 -790 791 0
56 -78 -791 792 0
-78 81 83 -792 0
12 61 -66 94 0
-4 -39 -78 793 0
-78 82 -99 -793 0
-24 -36 56 -66 0
19 -55 -64 70 0
-7 -16 -23 794 0
-23 27 -794 795 0
27 -40 -795 796 0
-40 64 66 -796 0
-6 9 -24 797 0
-24 74 87 -797 0
-49 -78 -89 798 0
-49 -78 -89 -798 0
20 -25 28 799 0
28 -67 -99 -799 0
-1 -10 -36 800 0
-36 -47 -800 801 0
-47 58 -100 -801 0
-46 51 -64 802 0
-64 82 -802 803 0
82 -92 -803 804 0
-92 96 99 -804 0
29 85 90 97 0
4 22 29 805 0
29 30 91 -805 0
-24 27 -40 806 0
-40 -57 -94 -806 0
-19 73 81 807 0
81 84 91 -807 0
3 -14 36 808 0
36 55 -808 809 0
55 -61 -809 810 0
-61 -78 -80 -810 0
64 -81 -86 89 0
-14 29 -54 811 0
-54 72 -811 812 0
72 75 -812 813 0
75 81 -97 -813 0
14 25 -59 -88 0
30 -44 79 -81 0
18 27 67 814 0
67 88 89 -814 0
28 69 84 96 0
-17 83 -86 815 0
-17 83 -86 -815 0
-12 -16 816 817 0
-12 -16 816 -817 0
-12 -16 -816 817 0
-12 -16 -816 -817 0
20 51 -68 818 0
20 51 -68 -818 0
-2 24 -47 819 0
-47 -51 -63 -819 0
-42 44 -45 820 0
-45 55 -820 821 0
55 -59 -821 822 0
-59 -62 66 -822 0
4 -15 -26 823 0
-26 65 -823 824 0
65 89 -824 825 0
89 92 -825 826 0
92 95 -98 -826 0
5 23 -28 827 0
5 23 -28 -827 0
-32 37 41 828 0
41 -53 -828 829 0
-53 55 59 -829 0
13 -38 60 830 0
60 64 -830 831 0
64 76 -93 -831 0
6 16 -25 832 0
-25 -77 -96 -832 0
2 6 -9 -57 0
6 -21 32 833 0
32 38 -833 834 0
38 41 -834 835 0
41 43 -835 836 0
43 -57 -73 -836 0
-11 -35 -40 -53 0
17 22 -25 837 0
-25 -38 -837 838 0
-38 -80 -838 839 0
-80 -85 -92 -839 0
6 -8 -11 840 0
-11 -32 -55 -840 0
63 87 -97 841 0
63 87 -97 -841 0
37 38 -53 842 0
-53 91 99 -842 0
5 -14 35 51 0
-8 12 14 843 0
14 -17 25 -843 0
6 12 -49 96 0
-38 -42 -46 844 0
-46 73 -97 -844 0
10 -75 -85 845 0
-85 96 97 -845 0
27 -32 -49 846 0
-49 56 -846 847 0
56 61 -847 848 0
61 -66 -848 849 0
-66 76 -97 -849 0
13 -15 -20 850 0
-20 24 -850 851 0
24 30 -851 852 0
30 41 -852 853 0
41 50 93 -853 0
-2 -15 19 854 0
19 31 -854 855 0
31 -34 -855 856 0
-34 40 -856 857 0
40 -46 66 -857 0
67 84 858 859 0
67 84 858 -859 0
67 84 -858 859 0
67 84 -858 -859 0
-52 -72 -75 -91 0
-39 -69 -78 -98 0
-12 -16 57 860 0
57 68 -860 861 0
68 -69 -861 862 0
-69 -79 -862 863 0
-79 -82 -863 864 0
-82 85 -864 865 0
85 -93 -95 -865 0
-5 18 -52 866 0
-52 67 89 -866 0
22 50 -60 867 0
-60 -68 -73 -867 0
-43 -96 -98 868 0
-43 -96 -98 -868 0
-7 -10 -35 48 0
11 -51 55 869 0
11 -51 55 -869 0
24 47 52 870 0
24 47 52 -870 0
5 -59 -99 871 0
5 -59 -99 -871 0
5 -19 -34 39 0
29 71 872 873 0
29 71 872 -873 0
29 71 -872 873 0
29 71 -872 -873 0
-6 23 874 875 0
-6 23 874 -875 0
-6 23 -874 875 0
-6 23 -874 -875 0
23 -29 51 876 0
51 52 -876 877 0
52 -64 -94 -877 0
-15 19 -34 878 0
-34 48 -878 879 0
48 51 -879 880 0
51 53 85 -880 0
-17 37 57 881 0
57 60 -881 882 0
60 61 -882 883 0
61 -93 95 -883 0
11 -25 47 884 0
11 -25 47 -884 0
-2 34 45 -91 0
-18 -50 53 885 0
-18 -50 53 -885 0
13 14 66 886 0
13 14 66 -886 0
23 42 44 887 0
44 46 -887 888 0
46 81 -888 889 0
81 -90 93 -889 0
40 45 -87 890 0
40 45 -87 -890 0
-18 -31 -41 891 0
-18 -31 -41 -891 0
1 12 69 892 0
69 -78 -90 -892 0
6 -42 893 894 0
6 -42 893 -894 0
6 -42 -893 894 0
6 -42 -893 -894 0
15 16 -51 895 0
-51 60 -895 896 0
60 70 -100 -896 0
3 -8 -27 897 0
-27 29 -897 898 0
29 34 -898 899 0
34 -40 96 -899 0
37 -39 -72 -92 0
19 21 -36 900 0
-36 38 74 -900 0
-44 -66 -76 901 0
-44 -66 -76 -901 0
-39 -62 -77 902 0
-39 -62 -77 -902 0
-21 -34 56 95 0
-12 22 -53 903 0
-53 -55 -903 904 0
-55 -78 -904 905 0
-78 80 -81 -905 0
7 -19 -23 906 0
-23 59 -906 907 0
59 97 -98 -907 0
-40 71 98 908 0
-40 71 98 -908 0
4 7 36 909 0
36 92 -95 -909 0
82 93 910 911 0
82 93 910 -911 0
82 93 -910 911 0
82 93 -910 -911 0
61 -75 79 912 0
79 -90 -95 -912 0
1 -17 21 913 0
21 23 -913 914 0
23 44 -914 915 0
44 -51 -915 916 0
-51 -60 -916 917 0
-60 -77 -82 -917 0
29 44 100 918 0
29 44 100 -918 0
-10 -35 46 919 0
46 47 -919 920 0
47 -62 -920 921 0
-62 -65 92 -921 0
24 27 49 922 0
49 -64 -73 -922 0
24 -45 57 -58 0
10 -16 -28 923 0
-28 -49 -923 924 0
-49 51 -924 925 0
51 52 -925 926 0
52 -54 -926 927 0
-54 56 -927 928 0
56 57 -928 929 0
57 -59 -64 -929 0
-2 23 -44 930 0
-2 23 -44 -930 0
15 30 -53 931 0
-53 -62 -931 932 0
-62 74 85 -932 0
1 -37 -87 933 0
-87 95 96 -933 0
2 -30 48 -66 0
23 40 -80 85 0
5 19 -34 934 0
-34 -50 -934 935 0
-50 -58 86 -935 0
34 -38 -77 83 0
24 38 -49 936 0
-49 60 -99 -936 0
26 -72 -77 937 0
26 -72 -77 -937 0
7 14 23 938 0
23 25 -938 939 0
25 30 -939 940 0
30 41 -940 941 0
41 -55 -941 942 0
-55 -58 -942 943 0
-58 68 94 -943 0
-26 34 43 944 0
-26 34 43 -944 0
-5 10 -30 945 0
-30 -61 -945 946 0
-61 -70 -946 947 0
-70 81 -947 948 0
81 82 -948 949 0
82 89 -99 -949 0
-21 -53 72 950 0
72 -77 88 -950 0
-5 30 -47 951 0
-47 88 92 -951 0
28 -61 -74 93 0
-3 6 24 952 0
24 -26 -952 953 0
-26 -76 95 -953 0
11 73 83 97 0
-24 -62 82 954 0
-24 -62 82 -954 0
44 45 -50 955 0
-50 -64 -955 956 0
-64 72 -74 -956 0
28 56 957 958 0
28 56 957 -958 0
28 56 -957 958 0
28 56 -957 -958 0
-6 10 -32 959 0
-32 36 -959 960 0
36 -68 79 -960 0
-28 51 -66 961 0
-66 -71 -961 962 0
-71 -75 -962 963 0
-75 88 93 -963 0
-29 53 -60 964 0
-29 53 -60 -964 0
26 -29 36 965 0
36 71 -965 966 0
71 -81 -92 -966 0
70 72 90 967 0
70 72 90 -967 0
-25 31 56 -87 0
45 95 98 968 0
45 95 98 -968 0
-81 84 -94 969 0
-81 84 -94 -969 0
3 10 -15 970 0
-15 68 -970 971 0
68 69 100 -971 0
-27 67 73 88 0
-26 29 -50 -67 0
-40 59 64 972 0
64 73 -85 -972 0
-10 -36 47 973 0
47 49 -973 974 0
49 -70 -974 975 0
-70 -72 -975 976 0
-72 81 -976 977 0
81 -87 -91 -977 0
-10 -39 90 95 0
20 48 75 978 0
20 48 75 -978 0
-20 27 -33 64 0
21 -25 -87 -97 0
-22 53 56 979 0
56 -63 69 -979 0
-2 -7 -13 980 0
-13 72 -980 981 0
72 86 87 -981 0
-26 35 -38 982 0
-38 -62 -982 983 0
-62 -66 -983 984 0
-66 94 95 -984 0
-3 -9 -22 985 0
-22 49 -985 986 0
49 51 -986 987 0
51 68 -987 988 0
68 -81 -988 989 0
-81 88 -89 -989 0
34 -44 60 -71 0
-4 -8 -13 990 0
-13 -43 -990 991 0
-43 88 -991 992 0
88 95 -96 -992 0
-6 -20 -24 993 0
-24 -28 -993 994 0
-28 38 -994 995 0
38 -57 -995 996 0
-57 -77 -996 997 0
-77 82 -89 -997 0
-9 -38 40 80 0
-8 -11 24 998 0
24 91 98 -998 0
20 -25 32 999 0
32 33 -999 1000 0
33 68 -81 -1000 0
7 9 22 1001 0
22 23 -1001 1002 0
23 39 -1002 1003 0
39 43 -1003 1004 0
43 -49 -73 -1004 0
2 15 18 1005 0
18 20 -1005 1006 0
20 -34 -1006 1007 0
-34 -51 -1007 1008 0
-51 77 -87 -1008 0
-14 -20 1009 1010 0
-14 -20 1009 -1010 0
-14 -20 -1009 1010 0
-14 -20 -1009 -1010 0
3 4 -10 1011 0
-10 31 -1011 1012 0
31 -50 -91 -1012 0
26 -39 -49 -60 0
13 19 62 100 0
-28 -35 62 1013 0
62 -83 91 -1013 0
19 -32 -55 1014 0
-55 -74 87 -1014 0
17 18 -29 1015 0
17 18 -29 -1015 0
3 30 -31 1016 0
-31 -42 -1016 1017 0
-42 -57 -1017 1018 0
-57 -60 -1018 1019 0
-60 -81 -93 -1019 0
-19 -24 30 1020 0
30 31 -1020 1021 0
31 59 -1021 1022 0
59 91 -96 -1022 0
39 -68 71 1023 0
71 -80 -83 -1023 0
-28 33 62 1024 0
62 -77 81 -1024 0
15 -37 46 1025 0
46 -47 -50 -1025 0
-52 62 1026 1027 0
-52 62 1026 -1027 0
-52 62 -1026 1027 0
-52 62 -1026 -1027 0
3 4 15 1028 0
15 23 -1028 1029 0
23 -31 -1029 1030 0
-31 -38 -77 -1030 0
3 -11 14 1031 0
14 -15 -1031 1032 0
-15 49 -1032 1033 0
49 61 -1033 1034 0
61 85 -86 -1034 0
-15 31 49 1035 0
49 -55 -99 -1035 0
34 -56 -60 -72 0
-9 26 50 1036 0
-9 26 50 -1036 0
-1 33 96 1037 0
-1 33 96 -1037 0
-5 -7 13 1038 0
13 61 -92 -1038 0
-2 -8 43 1039 0
-2 -8 43 -1039 0
-4 19 -30 1040 0
-30 69 -1040 1041 0
69 70 -79 -1041 0
39 63 80 1042 0
80 90 -1042 1043 0
90 91 -94 -1043 0
33 -72 75 1044 0
75 -81 84 -1044 0
-6 30 39 1045 0
39 -77 93 -1045 0
83 -90 99 1046 0
83 -90 99 -1046 0
-1 -4 25 1047 0
25 -33 -1047 1048 0
-33 -50 68 -1048 0
-22 59 -63 1049 0
-63 -85 -1049 1050 0
-85 88 94 -1050 0
-37 40 -52 1051 0
-52 65 -1051 1052 0
65 -70 -1052 1053 0
-70 -86 -1053 1054 0
-86 89 -92 -1054 0
24 36 -58 1055 0
-58 -67 -1055 1056 0
-67 78 -1056 1057 0
78 -79 -97 -1057 0
16 -44 46 85 0
34 89 1058 1059 0
34 89 1058 -1059 0
34 89 -1058 1059 0
34 89 -1058 -1059 0
-24 -53 -79 1060 0
-24 -53 -79 -1060 0
-72 87 1061 1062 0
-72 87 1061 -1062 0
-72 87 -1061 1062 0
-72 87 -1061 -1062 0
-5 -17 46 1063 0
46 -52 -94 -1063 0
5 12 39 1064 0
39 -43 -1064 1065 0
-43 -62 -1065 1066 0
-62 -71 91 -1066 0
-39 47 -85 -99 0
-33 46 71 1067 0
-33 46 71 -1067 0
15 -21 -31 38 0
10 46 56 1068 0
56 -84 100 -1068 0
63 -64 -86 1069 0
63 -64 -86 -1069 0
-25 -76 -87 -92 0
14 66 -79 -94 0
19 24 40 1070 0
40 42 -1070 1071 0
42 -50 -1071 1072 0
-50 -68 -1072 1073 0
-68 71 -1073 1074 0
71 -81 96 -1074 0
21 26 41 1075 0
41 -78 -1075 1076 0
-78 -90 -96 -1076 0
39 -59 73 1077 0
73 -75 -95 -1077 0
81 -82 94 1078 0
81 -82 94 -1078 0
3 14 -16 1079 0
-16 -20 -1079 1080 0
-20 47 -1080 1081 0
47 63 -1081 1082 0
63 65 -1082 1083 0
65 -87 -1083 1084 0
-87 90 92 -1084 0
-8 21 70 -75 0
-13 -48 -87 91 0
-33 -45 65 -75 0
28 -64 -73 79 0
-16 -25 -32 1085 0
-32 36 -1085 1086 0
36 -49 -1086 1087 0
-49 73 75 -1087 0
-15 18 -33 1088 0
-33 83 96 -1088 0
-8 -58 -87 -98 0
-9 29 -34 1089 0
-34 37 -76 -1089 0
-1 5 8 1090 0
8 -10 -1090 1091 0
-10 -19 -1091 1092 0
-19 -45 -1092 1093 0
-45 -56 67 -1093 0
6 -55 60 1094 0
60 -73 91 -1094 0
38 94 99 1095 0
38 94 99 -1095 0
-3 13 31 1096 0
31 38 -1096 1097 0
38 39 100 -1097 0
-33 36 -49 -66 0
-28 82 90 1098 0
90 93 100 -1098 0
12 -23 45 1099 0
45 64 -1099 1100 0
64 -70 -1100 1101 0
-70 -87 -89 -1101 0
73 -90 -95 98 0
-6 -65 1102 1103 0
-6 -65 1102 -1103 0
-6 -65 -1102 1103 0
-6 -65 -1102 -1103 0
-23 38 -63 1104 0
-63 81 -1104 1105 0
81 84 90 -1105 0
23 34 -68 -97 0
39 -53 88 -90 0
5 27 36 1106 0
36 76 -1106 1107 0
76 97 98 -1107 0
37 78 93 1108 0
37 78 93 -1108 0
-26 92 -95 1109 0
-26 92 -95 -1109 0
-21 -25 1110 1111 0
-21 -25 1110 -1111 0
-21 -25 -1110 1111 0
-21 -25 -1110 -1111 0
29 60 -77 1112 0
29 60 -77 -1112 0
-11 33 -56 1113 0
-56 -60 -72 -1113 0
1 4 -7 1114 0
-7 -51 -1114 1115 0
-51 53 -1115 1116 0
53 -54 -1116 1117 0
-54 64 -1117 1118 0
64 -68 -1118 1119 0
-68 -71 75 -1119 0
13 -24 -35 1120 0
-35 74 98 -1120 0
14 32 -37 1121 0
14 32 -37 -1121 0
-2 -41 46 1122 0
46 50 -1122 1123 0
50 -62 -1123 1124 0
-62 64 68 -1124 0
-5 22 -47 1125 0
-47 69 -1125 1126 0
69 73 85 -1126 0
15 25 -34 -86 0
11 15 -18 -66 0
15 -30 41 1127 0
41 47 -1127 1128 0
47 50 -1128 1129 0
50 52 -1129 1130 0
52 -66 -82 -1130 0
-1 -20 -44 1131 0
-44 -49 -62 -1131 0
26 31 -34 1132 0
-34 -47 -1132 1133 0
-47 -89 -94 -1133 0
15 -17 -20 1134 0
-20 -41 -64 -1134 0
-6 53 1135 1136 0
-6 53 1135 -1136 0
-6 53 -1135 1136 0
-6 53 -1135 -1136 0
8 72 96 1137 0
8 72 96 -1137 0
46 47 -62 100 0
14 -23 44 60 0
5 -17 21 1138 0
21 23 -1138 1139 0
23 -26 34 -1139 0
15 21 -58 1140 0
15 21 -58 -1140 0
-6 -80 1141 1142 0
-6 -80 1141 -1142 0
-6 -80 -1141 1142 0
-6 -80 -1141 -1142 0
5 6 -47 1143 0
-47 -51 -1143 1144 0
-51 -55 82 -1144 0
-6 19 -84 -94 0
2 36 -41 1145 0
-41 -58 -1145 1146 0
-58 65 -1146 1147 0
65 70 -1147 1148 0
70 -75 85 -1148 0
22 -24 -29 1149 0
-29 33 -1149 1150 0
33 39 -1150 1151 0
39 50 59 -1151 0
-11 -24 28 1152 0
28 40 -1152 1153 0
40 -43 -1153 1154 0
-43 49 -1154 1155 0
49 -55 75 -1155 0
76 93 1156 1157 0
76 93 1156 -1157 0
76 93 -1156 1157 0
76 93 -1156 -1157 0
-7 -61 -81 1158 0
-81 -84 -100 -1158 0
-2 -4 -48 1159 0
-48 -78 -87 -1159 0
-21 -25 66 1160 0
66 77 -1160 1161 0
77 -78 -1161 1162 0
-78 -88 -1162 1163 0
-88 -91 94 -1163 0
-14 27 -61 1164 0
-61 76 98 -1164 0
-5 -7 31 1165 0
31 59 -1165 1166 0
59 -69 -1166 1167 0
-69 -77 -82 -1167 0
-16 -19 -44 57 0
20 -60 64 1168 0
20 -60 64 -1168 0
-8 33 56 61 0
14 -68 1169 1170 0
14 -68 1169 -1170 0
14 -68 -1169 1170 0
14 -68 -1169 -1170 0
14 -28 -43 48 0
38 80 1171 1172 0
38 80 1171 -1172 0
38 80 -1171 1172 0
38 80 -1171 -1172 0
-3 -15 32 1173 0
-3 -15 32 -1173 0
32 -38 60 1174 0
60 61 -73 -1174 0
-2 4 -24 1175 0
-24 28 -1175 1176 0
28 -43 -1176 1177 0
-43 57 -1177 1178 0
57 60 -1178 1179 0
60 62 94 -1179 0
-26 46 66 1180 0
66 69 70 -1180 0
20 -34 56 1181 0
20 -34 56 -1181 0
-11 43 54 -100 0
-27 -59 62 1182 0
-27 -59 62 -1182 0
2 22 23 75 0
32 51 53 1183 0
53 55 -1183 1184 0
55 90 -99 -1184 0
49 54 -96 1185 0
49 54 -96 -1185 0
-27 -40 -50 1186 0
-27 -40 -50 -1186 0
10 21 78 1187 0
78 -87 -99 -1187 0
-9 15 -51 1188 0
-9 15 -51 -1188 0
5 24 25 1189 0
25 -60 -1189 1190 0
-60 69 79 -1190 0
-1 12 -17 1191 0
-17 -36 -1191 1192 0
-36 38 -1192 1193 0
38 43 -49 -1193 0
46 -48 -81 1194 0
46 -48 -81 -1194 0
28 30 -45 1195 0
-45 47 83 -1195 0
-53 -75 -85 1196 0
-53 -75 -85 -1196 0
4 -48 -71 -86 0
-30 -43 65 1197 0
-30 -43 65 -1197 0
6 -7 -21 1198 0
-21 31 -1198 1199 0
31 -62 -1199 1200 0
-62 -64 -1200 1201 0
-64 -87 -1201 1202 0
-87 89 -90 -1202 0
7 16 -28 1203 0
-28 -32 68 -1203 0
1 -4 -49 80 0
2 13 16 45 0
-4 91 1204 1205 0
-4 91 1204 -1205 0
-4 91 -1204 1205 0
-4 91 -1204 -1205 0
70 -84 88 -99 0
9 10 -26 1206 0
-26 30 -1206 1207 0
30 32 -1207 1208 0
32 53 -1208 1209 0
53 -60 -1209 1210 0
-60 -69 -1210 1211 0
-69 -86 -91 -1211 0
1 38 53 1212 0
1 38 53 -1212 0
-19 -44 55 1213 0
55 56 -1213 1214 0
56 -71 -74 -1214 0
33 36 58 1215 0
58 -73 -82 -1215 0
33 -54 66 -67 0
19 -25 -37 1216 0
-37 -58 -1216 1217 0
-58 60 -1217 1218 0
60 61 -1218 1219 0
61 -63 -1219 1220 0
-63 65 -1220 1221 0
65 66 -1221 1222 0
66 -68 -73 -1222 0
-11 32 -53 1223 0
-11 32 -53 -1223 0
4 5 24 1224 0
24 39 -1224 1225 0
39 -62 -1225 1226 0
-62 -71 -1226 1227 0
-71 83 94 -1227 0
10 -46 -96 1228 0
10 -46 -96 -1228 0
11 -39 57 -75 0
32 49 -89 94 0
14 28 -43 1229 0
-43 -59 -1229 1230 0
-59 -67 95 -1230 0
43 -47 -86 92 0
-8 -15 1231 1232 0
-8 -15 1231 -1232 0
-8 -15 -1231 1232 0
-8 -15 -1231 -1232 0
33 47 -58 69 0
3 35 -81 -86 0
16 23 32 1233 0
32 34 -1233 1234 0
34 39 -1234 1235 0
39 50 -1235 1236 0
50 -64 -1236 1237 0
-64 -67 77 -1237 0
-8 -35 43 52 0
-14 19 -39 1238 0
-39 -70 -1238 1239 0
-70 -79 -1239 1240 0
-79 90 -1240 1241 0
90 91 98 -1241 0
1 -30 -62 1242 0
-62 81 -1242 1243 0
81 -86 97 -1243 0
2 -14 39 1244 0
39 -56 97 -1244 0
4 37 -70 -83 0
6 -12 15 1245 0
15 33 -1245 1246 0
33 -35 -85 -1246 0
20 82 92 1247 0
20 82 92 -1247 0
-33 -71 91 1248 0
-33 -71 91 -1248 0
53 54 -59 1249 0
-59 -73 -1249 1250 0
-73 81 -83 -1250 0
37 65 1251 1252 0
37 65 1251 -1252 0
37 65 -1251 1252 0
37 65 -1251 -1252 0
2 -15 19 1253 0
19 -41 -1253 1254 0
-41 45 -1254 1255 0
45 -77 88 -1255 0
-37 60 -75 1256 0
-75 -80 -1256 1257 0
-80 -84 97 -1257 0
-1 -38 62 -69 0
35 -38 45 1258 0
45 80 -90 -1258 0
79 81 99 1259 0
79 81 99 -1259 0
4 7 -34 1260 0
-34 40 -1260 1261 0
40 65 -96 -1261 0
-3 54 1262 1263 0
-3 54 1262 -1263 0
-3 54 -1262 1263 0
-3 54 -1262 -1263 0
9 -90 93 1264 0
9 -90 93 -1264 0
12 19 -24 1265 0
-24 77 78 -1265 0
-36 76 82 97 0
-35 38 -59 -76 0
-49 68 73 1266 0
73 82 -94 -1266 0
4 -19 -45 1267 0
-45 56 -1267 1268 0
56 58 -1268 1269 0
58 -79 -1269 1270 0
-79 -81 -1270 1271 0
-81 90 -1271 1272 0
90 -96 -100 -1272 0
-19 -48 99 1273 0
-19 -48 99 -1273 0
29 57 84 1274 0
29 57 84 -1274 0
-6 -29 36 1275 0
36 -42 73 -1275 0
30 -34 -96 1276 0
30 -34 -96 -1276 0
-31 62 65 1277 0
65 -72 78 -1277 0
3 4 -11 1278 0
-11 -16 -1278 1279 0
-16 -22 -1279 1280 0
-22 81 -1280 1281 0
81 95 96 -1281 0
-35 44 -47 1282 0
-47 -71 -75 -1282 0
-12 -18 -31 1283 0
-31 58 -1283 1284 0
58 60 -1284 1285 0
60 77 -1285 1286 0
77 -90 -1286 1287 0
-90 97 -98 -1287 0
4 -5 43 1288 0
43 -53 -1288 1289 0
-53 69 -80 -1289 0
-13 -17 -22 1290 0
-22 -52 97 -1290 0
-15 -29 -33 1291 0
-33 -37 -1291 1292 0
-37 47 -1292 1293 0
47 -66 -1293 1294 0
-66 -86 -1294 1295 0
-86 91 -98 -1295 0
7 -18 -47 1296 0
-47 49 89 -1296 0
-17 -20 33 100 0
29 -34 41 1297 0
41 42 -1297 1298 0
42 77 -90 -1298 0
16 18 31 1299 0
31 32 -1299 1300 0
32 48 -1300 1301 0
48 52 -1301 1302 0
52 -58 -82 -1302 0
11 24 27 1303 0
27 29 -1303 1304 0
29 -43 -1304 1305 0
-43 -60 -1305 1306 0
-60 86 -96 -1306 0
-23 -29 1307 1308 0
-23 -29 1307 -1308 0
-23 -29 -1307 1308 0
-23 -29 -1307 -1308 0
12 13 -19 1309 0
-19 40 -1309 1310 0
40 -59 -100 -1310 0
9 35 -48 1311 0
-48 -58 -69 -1311 0
22 28 71 1312 0
22 28 71 -1312 0
-37 -44 71 1313 0
71 -92 100 -1313 0
28 -41 -64 1314 0
-64 -83 96 -1314 0
-2 26 27 -38 0
-5 12 39 1315 0
39 -40 -1315 1316 0
-40 -51 -1316 1317 0
-51 -66 -1317 1318 0
-66 -69 -90 -1318 0
-28 -33 39 1319 0
39 40 -1319 1320 0
40 68 100 -1320 0
48 -77 80 1321 0
80 -89 -92 -1321 0
-37 42 71 1322 0
71 -86 90 -1322 0
24 -46 55 1323 0
55 -56 -59 -1323 0
-61 71 1324 1325 0
-61 71 1324 -1325 0
-61 71 -1324 1325 0
-61 71 -1324 -1325 0
12 13 24 1326 0
24 32 -1326 1327 0
32 -40 -1327 1328 0
-40 -47 -86 -1328 0
-8 12 -20 1329 0
-20 23 -1329 1330 0
23 -24 -1330 1331 0
-24 58 -1331 1332 0
58 70 -1332 1333 0
70 94 -95 -1333 0
